123
97
98
101
102
83
126
81
84
117
78
77
18
11
120
35
40
95
93
127
107
111
112
94
46
49
47
55
66
113
65
99
92
89
125
104
59
9
108
20
17
21
8
67
71
110
85
86
87
88
109
96
70
68
73
74
72
19
22
4
23
24
6
106
15
105
114
3
90
116
60
62
61
91
58
64
100
10
115
13
50
121
56
5
52
124
53
118
48
45
103
44
54
57
51
2
7
1
16
37
36
43
34
30
41
14
12
31
27
80
79
76
75
69
119
63
82
32
29
28
122
33
25
26
38
39
42
123
